(set-info :source |printed by MathSAT|)
(declare-fun |!{$(in_main#0)<N>}| () Int)
(declare-fun |!{$(in_main#0)<N>}.next| () Int)
(declare-fun |!{$(in_main#0)<end>}| () Int)
(declare-fun |!{$(in_main#0)<end>}.next| () Int)
(declare-fun |!{$(in_main#0)<i>}| () Int)
(declare-fun |!{$(in_main#0)<i>}.next| () Int)
(declare-fun |!{$(in_main#0)<j>}| () Int)
(declare-fun |!{$(in_main#0)<j>}.next| () Int)
(declare-fun |!{$(in_main#0)<k>}| () Int)
(declare-fun |!{$(in_main#0)<k>}.next| () Int)
(declare-fun |!{$(in_main#0)<k#1>}| () Int)
(declare-fun |!{$(in_main#0)<k#1>}.next| () Int)
(declare-fun |!{$(in_main#0)<l>}| () Int)
(declare-fun |!{$(in_main#0)<l>}.next| () Int)
(declare-fun |!{$(in_main#0)<pi>}| () Int)
(declare-fun |!{$(in_main#0)<pi>}.next| () Int)
(declare-fun |!{$(in_main#0)<pivot>}| () Int)
(declare-fun |!{$(in_main#0)<pivot>}.next| () Int)
(declare-fun |!{$(in_main#0)<start>}| () Int)
(declare-fun |!{$(in_main#0)<start>}.next| () Int)
(declare-fun |!{$(in_main#0)<array.1>}| () (Array Int Int))
(declare-fun |!{$(in_main#0)<array.1>}.next| () (Array Int Int))
(declare-fun |!{$(in_main#0)<$(in___VERIFIER_nondet_int#0)<h#<__VERIFIER_nondet_int.return>>>}| () Int)
(declare-fun |!{$(in_main#0)<$(in___VERIFIER_nondet_int#1)<h#<__VERIFIER_nondet_int.return>>>}| () Int)
(declare-fun |!{$(in_main#0)<$(in___VERIFIER_nondet_int#2)<h#<__VERIFIER_nondet_int.return>>>}| () Int)
(declare-fun |!{$(in_main#0)<$(in___VERIFIER_nondet_int#4)<h#<__VERIFIER_nondet_int.return>>>}| () Int)
(declare-fun !pc () Int)
(declare-fun !pc.next () Int)
(declare-fun |%{$(in_main#0)<i>}#1| () Int)
(declare-fun |%{$(in_main#0)<j>}#1| () Int)
(declare-fun |%{$(in_main#0)<k#1>}#1| () Int)
(declare-fun |%{$(in_main#0)<l>}#1| () Int)
(declare-fun |%{$(in_main#0)<pi>}#1| () Int)
(declare-fun |%{$(in_main#0)<pivot>}#1| () Int)
(declare-fun |%{$(in_main#0)<array.1>}#1| () (Array Int Int))
(declare-fun |%{$(in_main#0)<i>}#2| () Int)
(declare-fun |%{$(in_main#0)<array.1>}#3| () (Array Int Int))
(define-fun .def_56 () Int (! !pc :next !pc.next))
(define-fun .def_59 () Bool (! (= .def_56 2) :init true))
(define-fun .def_394 () Bool (= .def_56 65))
(define-fun .def_352 () Bool (= !pc.next 87))
(define-fun .def_397 () Bool (and .def_352 .def_394))
(define-fun .def_10 () Int (! |!{$(in_main#0)<end>}| :next |!{$(in_main#0)<end>}.next|))
(define-fun .def_28 () (Array Int Int) (! |!{$(in_main#0)<array.1>}| :next |!{$(in_main#0)<array.1>}.next|))
(define-fun .def_289 () Int (select .def_28 .def_10))
(define-fun .def_389 () Bool (= |!{$(in_main#0)<pivot>}.next| .def_289))
(define-fun .def_26 () Int (! |!{$(in_main#0)<start>}| :next |!{$(in_main#0)<start>}.next|))
(define-fun .def_383 () Bool (= |!{$(in_main#0)<j>}.next| .def_26))
(define-fun .def_292 () Int (* (- 1) .def_26))
(define-fun .def_380 () Int (+ |!{$(in_main#0)<i>}.next| .def_292))
(define-fun .def_381 () Bool (= .def_380 (- 1)))
(define-fun .def_128 () Bool (= .def_10 |!{$(in_main#0)<end>}.next|))
(define-fun .def_8 () Int (! |!{$(in_main#0)<N>}| :next |!{$(in_main#0)<N>}.next|))
(define-fun .def_126 () Bool (= .def_8 |!{$(in_main#0)<N>}.next|))
(define-fun .def_149 () Bool (and .def_126 .def_128))
(define-fun .def_382 () Bool (and .def_149 .def_381))
(define-fun .def_384 () Bool (and .def_382 .def_383))
(define-fun .def_16 () Int (! |!{$(in_main#0)<k>}| :next |!{$(in_main#0)<k>}.next|))
(define-fun .def_134 () Bool (= .def_16 |!{$(in_main#0)<k>}.next|))
(define-fun .def_385 () Bool (and .def_134 .def_384))
(define-fun .def_18 () Int (! |!{$(in_main#0)<k#1>}| :next |!{$(in_main#0)<k#1>}.next|))
(define-fun .def_136 () Bool (= .def_18 |!{$(in_main#0)<k#1>}.next|))
(define-fun .def_386 () Bool (and .def_136 .def_385))
(define-fun .def_20 () Int (! |!{$(in_main#0)<l>}| :next |!{$(in_main#0)<l>}.next|))
(define-fun .def_138 () Bool (= .def_20 |!{$(in_main#0)<l>}.next|))
(define-fun .def_387 () Bool (and .def_138 .def_386))
(define-fun .def_22 () Int (! |!{$(in_main#0)<pi>}| :next |!{$(in_main#0)<pi>}.next|))
(define-fun .def_140 () Bool (= .def_22 |!{$(in_main#0)<pi>}.next|))
(define-fun .def_388 () Bool (and .def_140 .def_387))
(define-fun .def_390 () Bool (and .def_388 .def_389))
(define-fun .def_144 () Bool (= .def_26 |!{$(in_main#0)<start>}.next|))
(define-fun .def_391 () Bool (and .def_144 .def_390))
(define-fun .def_146 () Bool (= .def_28 |!{$(in_main#0)<array.1>}.next|))
(define-fun .def_392 () Bool (and .def_146 .def_391))
(define-fun .def_363 () Bool (<= .def_8 .def_16))
(define-fun .def_393 () Bool (and .def_363 .def_392))
(define-fun .def_398 () Bool (and .def_393 .def_397))
(define-fun .def_112 () Bool (= !pc.next 65))
(define-fun .def_395 () Bool (and .def_112 .def_394))
(define-fun .def_365 () (Array Int Int) (store .def_28 .def_16 |!{$(in_main#0)<$(in___VERIFIER_nondet_int#4)<h#<__VERIFIER_nondet_int.return>>>}|))
(define-fun .def_377 () Bool (= |!{$(in_main#0)<array.1>}.next| .def_365))
(define-fun .def_368 () Int (* (- 1) |!{$(in_main#0)<k>}.next|))
(define-fun .def_369 () Int (+ .def_16 .def_368))
(define-fun .def_370 () Bool (= .def_369 (- 1)))
(define-fun .def_12 () Int (! |!{$(in_main#0)<i>}| :next |!{$(in_main#0)<i>}.next|))
(define-fun .def_130 () Bool (= .def_12 |!{$(in_main#0)<i>}.next|))
(define-fun .def_150 () Bool (and .def_130 .def_149))
(define-fun .def_14 () Int (! |!{$(in_main#0)<j>}| :next |!{$(in_main#0)<j>}.next|))
(define-fun .def_132 () Bool (= .def_14 |!{$(in_main#0)<j>}.next|))
(define-fun .def_151 () Bool (and .def_132 .def_150))
(define-fun .def_371 () Bool (and .def_151 .def_370))
(define-fun .def_372 () Bool (and .def_136 .def_371))
(define-fun .def_373 () Bool (and .def_138 .def_372))
(define-fun .def_374 () Bool (and .def_140 .def_373))
(define-fun .def_24 () Int (! |!{$(in_main#0)<pivot>}| :next |!{$(in_main#0)<pivot>}.next|))
(define-fun .def_142 () Bool (= .def_24 |!{$(in_main#0)<pivot>}.next|))
(define-fun .def_375 () Bool (and .def_142 .def_374))
(define-fun .def_376 () Bool (and .def_144 .def_375))
(define-fun .def_378 () Bool (and .def_376 .def_377))
(define-fun .def_364 () Bool (not .def_363))
(define-fun .def_379 () Bool (and .def_364 .def_378))
(define-fun .def_396 () Bool (and .def_379 .def_395))
(define-fun .def_399 () Bool (or .def_396 .def_398))
(define-fun .def_351 () Bool (= .def_56 87))
(define-fun .def_239 () Bool (= !pc.next 138))
(define-fun .def_359 () Bool (and .def_239 .def_351))
(define-fun .def_322 () Int (* (- 1) |!{$(in_main#0)<i>}.next|))
(define-fun .def_323 () Int (+ .def_12 .def_322))
(define-fun .def_324 () Bool (= .def_323 (- 1)))
(define-fun .def_339 () Bool (and .def_149 .def_324))
(define-fun .def_340 () Bool (and .def_132 .def_339))
(define-fun .def_341 () Bool (and .def_134 .def_340))
(define-fun .def_249 () Bool (= |!{$(in_main#0)<k#1>}.next| .def_26))
(define-fun .def_342 () Bool (and .def_249 .def_341))
(define-fun .def_343 () Bool (and .def_138 .def_342))
(define-fun .def_330 () Int (* (- 1) |!{$(in_main#0)<pi>}.next|))
(define-fun .def_331 () Int (+ .def_12 .def_330))
(define-fun .def_332 () Bool (= .def_331 (- 1)))
(define-fun .def_344 () Bool (and .def_332 .def_343))
(define-fun .def_345 () Bool (and .def_142 .def_344))
(define-fun .def_346 () Bool (and .def_144 .def_345))
(define-fun .def_265 () Int (+ .def_12 1))
(define-fun .def_266 () Int (select .def_28 .def_265))
(define-fun .def_290 () (Array Int Int) (store .def_28 .def_265 .def_289))
(define-fun .def_291 () (Array Int Int) (store .def_290 .def_10 .def_266))
(define-fun .def_336 () Bool (= |!{$(in_main#0)<array.1>}.next| .def_291))
(define-fun .def_347 () Bool (and .def_336 .def_346))
(define-fun .def_295 () Int (* (- 1) .def_12))
(define-fun .def_296 () Int (+ .def_10 .def_295))
(define-fun .def_297 () Bool (<= 1 .def_296))
(define-fun .def_293 () Int (+ .def_12 .def_292))
(define-fun .def_294 () Bool (<= (- 1) .def_293))
(define-fun .def_298 () Bool (and .def_294 .def_297))
(define-fun .def_299 () Int (ite .def_298 1 0))
(define-fun .def_300 () Bool (= .def_299 0))
(define-fun .def_301 () Bool (not .def_300))
(define-fun .def_348 () Bool (and .def_301 .def_347))
(define-fun .def_260 () Int (* (- 1) .def_14))
(define-fun .def_261 () Int (+ .def_10 .def_260))
(define-fun .def_262 () Bool (<= 1 .def_261))
(define-fun .def_288 () Bool (not .def_262))
(define-fun .def_349 () Bool (and .def_288 .def_348))
(define-fun .def_360 () Bool (and .def_349 .def_359))
(define-fun .def_355 () Bool (= !pc.next 131))
(define-fun .def_356 () Bool (and .def_351 .def_355))
(define-fun .def_320 () Bool (and .def_126 .def_300))
(define-fun .def_321 () Bool (and .def_128 .def_320))
(define-fun .def_325 () Bool (and .def_321 .def_324))
(define-fun .def_326 () Bool (and .def_132 .def_325))
(define-fun .def_327 () Bool (and .def_134 .def_326))
(define-fun .def_328 () Bool (and .def_136 .def_327))
(define-fun .def_329 () Bool (and .def_138 .def_328))
(define-fun .def_333 () Bool (and .def_329 .def_332))
(define-fun .def_334 () Bool (and .def_142 .def_333))
(define-fun .def_335 () Bool (and .def_144 .def_334))
(define-fun .def_337 () Bool (and .def_335 .def_336))
(define-fun .def_338 () Bool (and .def_288 .def_337))
(define-fun .def_357 () Bool (and .def_338 .def_356))
(define-fun .def_353 () Bool (and .def_351 .def_352))
(define-fun .def_316 () Bool (= |!{$(in_main#0)<array.1>}.next| |%{$(in_main#0)<array.1>}#3|))
(define-fun .def_306 () Int (* (- 1) |!{$(in_main#0)<j>}.next|))
(define-fun .def_307 () Int (+ .def_14 .def_306))
(define-fun .def_308 () Bool (= .def_307 (- 1)))
(define-fun .def_304 () Bool (= |!{$(in_main#0)<i>}.next| |%{$(in_main#0)<i>}#2|))
(define-fun .def_305 () Bool (and .def_149 .def_304))
(define-fun .def_309 () Bool (and .def_305 .def_308))
(define-fun .def_310 () Bool (and .def_134 .def_309))
(define-fun .def_311 () Bool (and .def_136 .def_310))
(define-fun .def_312 () Bool (and .def_138 .def_311))
(define-fun .def_313 () Bool (and .def_140 .def_312))
(define-fun .def_314 () Bool (and .def_142 .def_313))
(define-fun .def_315 () Bool (and .def_144 .def_314))
(define-fun .def_317 () Bool (and .def_315 .def_316))
(define-fun .def_263 () Int (select .def_28 .def_14))
(define-fun .def_267 () (Array Int Int) (store .def_28 .def_14 .def_266))
(define-fun .def_268 () (Array Int Int) (store .def_267 .def_265 .def_263))
(define-fun .def_282 () Bool (= .def_268 |%{$(in_main#0)<array.1>}#3|))
(define-fun .def_274 () Int (* (- 1) |%{$(in_main#0)<i>}#2|))
(define-fun .def_275 () Int (+ .def_12 .def_274))
(define-fun .def_276 () Bool (= .def_275 (- 1)))
(define-fun .def_264 () Bool (<= .def_263 .def_24))
(define-fun .def_278 () Bool (and .def_264 .def_276))
(define-fun .def_284 () Bool (and .def_278 .def_282))
(define-fun .def_281 () Bool (= .def_28 |%{$(in_main#0)<array.1>}#3|))
(define-fun .def_273 () Bool (= .def_12 |%{$(in_main#0)<i>}#2|))
(define-fun .def_269 () Bool (not .def_264))
(define-fun .def_277 () Bool (and .def_269 .def_273))
(define-fun .def_283 () Bool (and .def_277 .def_281))
(define-fun .def_285 () Bool (or .def_283 .def_284))
(define-fun .def_318 () Bool (and .def_285 .def_317))
(define-fun .def_319 () Bool (and .def_262 .def_318))
(define-fun .def_354 () Bool (and .def_319 .def_353))
(define-fun .def_358 () Bool (or .def_354 .def_357))
(define-fun .def_361 () Bool (or .def_358 .def_360))
(define-fun .def_234 () Bool (= .def_56 138))
(define-fun .def_182 () Bool (= !pc.next 169))
(define-fun .def_243 () Bool (and .def_182 .def_234))
(define-fun .def_226 () Bool (= |!{$(in_main#0)<l>}.next| .def_22))
(define-fun .def_152 () Bool (and .def_134 .def_151))
(define-fun .def_153 () Bool (and .def_136 .def_152))
(define-fun .def_227 () Bool (and .def_153 .def_226))
(define-fun .def_228 () Bool (and .def_140 .def_227))
(define-fun .def_229 () Bool (and .def_142 .def_228))
(define-fun .def_230 () Bool (and .def_144 .def_229))
(define-fun .def_231 () Bool (and .def_146 .def_230))
(define-fun .def_193 () Bool (<= .def_18 .def_22))
(define-fun .def_202 () Bool (not .def_193))
(define-fun .def_232 () Bool (and .def_202 .def_231))
(define-fun .def_244 () Bool (and .def_232 .def_243))
(define-fun .def_240 () Bool (and .def_234 .def_239))
(define-fun .def_215 () Int (* (- 1) |!{$(in_main#0)<k#1>}.next|))
(define-fun .def_216 () Int (+ .def_18 .def_215))
(define-fun .def_217 () Bool (= .def_216 (- 1)))
(define-fun .def_218 () Bool (and .def_152 .def_217))
(define-fun .def_219 () Bool (and .def_138 .def_218))
(define-fun .def_220 () Bool (and .def_140 .def_219))
(define-fun .def_221 () Bool (and .def_142 .def_220))
(define-fun .def_222 () Bool (and .def_144 .def_221))
(define-fun .def_223 () Bool (and .def_146 .def_222))
(define-fun .def_117 () Int (select .def_28 .def_22))
(define-fun .def_194 () Int (select .def_28 .def_18))
(define-fun .def_195 () Bool (<= .def_194 .def_117))
(define-fun .def_196 () Int (ite .def_195 1 0))
(define-fun .def_197 () Bool (= .def_196 0))
(define-fun .def_198 () Bool (not .def_197))
(define-fun .def_224 () Bool (and .def_198 .def_223))
(define-fun .def_225 () Bool (and .def_193 .def_224))
(define-fun .def_241 () Bool (and .def_225 .def_240))
(define-fun .def_236 () Bool (= !pc.next 158))
(define-fun .def_237 () Bool (and .def_234 .def_236))
(define-fun .def_203 () Bool (and .def_126 .def_197))
(define-fun .def_204 () Bool (and .def_128 .def_203))
(define-fun .def_205 () Bool (and .def_130 .def_204))
(define-fun .def_206 () Bool (and .def_132 .def_205))
(define-fun .def_207 () Bool (and .def_134 .def_206))
(define-fun .def_208 () Bool (and .def_136 .def_207))
(define-fun .def_209 () Bool (and .def_138 .def_208))
(define-fun .def_210 () Bool (and .def_140 .def_209))
(define-fun .def_211 () Bool (and .def_142 .def_210))
(define-fun .def_212 () Bool (and .def_144 .def_211))
(define-fun .def_213 () Bool (and .def_146 .def_212))
(define-fun .def_214 () Bool (and .def_193 .def_213))
(define-fun .def_238 () Bool (and .def_214 .def_237))
(define-fun .def_242 () Bool (or .def_238 .def_241))
(define-fun .def_245 () Bool (or .def_242 .def_244))
(define-fun .def_186 () Bool (= !pc.next 0))
(define-fun .def_177 () Bool (= .def_56 169))
(define-fun .def_187 () Bool (and .def_177 .def_186))
(define-fun .def_115 () Bool (<= .def_20 .def_10))
(define-fun .def_125 () Bool (not .def_115))
(define-fun .def_165 () Bool (and .def_125 .def_126))
(define-fun .def_166 () Bool (and .def_128 .def_165))
(define-fun .def_167 () Bool (and .def_130 .def_166))
(define-fun .def_168 () Bool (and .def_132 .def_167))
(define-fun .def_169 () Bool (and .def_134 .def_168))
(define-fun .def_170 () Bool (and .def_136 .def_169))
(define-fun .def_171 () Bool (and .def_138 .def_170))
(define-fun .def_172 () Bool (and .def_140 .def_171))
(define-fun .def_173 () Bool (and .def_142 .def_172))
(define-fun .def_174 () Bool (and .def_144 .def_173))
(define-fun .def_175 () Bool (and .def_146 .def_174))
(define-fun .def_188 () Bool (and .def_175 .def_187))
(define-fun .def_183 () Bool (and .def_177 .def_182))
(define-fun .def_155 () Int (* (- 1) |!{$(in_main#0)<l>}.next|))
(define-fun .def_156 () Int (+ .def_20 .def_155))
(define-fun .def_157 () Bool (= .def_156 (- 1)))
(define-fun .def_158 () Bool (and .def_153 .def_157))
(define-fun .def_159 () Bool (and .def_140 .def_158))
(define-fun .def_160 () Bool (and .def_142 .def_159))
(define-fun .def_161 () Bool (and .def_144 .def_160))
(define-fun .def_162 () Bool (and .def_146 .def_161))
(define-fun .def_116 () Int (select .def_28 .def_20))
(define-fun .def_118 () Bool (<= .def_117 .def_116))
(define-fun .def_119 () Int (ite .def_118 1 0))
(define-fun .def_120 () Bool (= .def_119 0))
(define-fun .def_121 () Bool (not .def_120))
(define-fun .def_163 () Bool (and .def_121 .def_162))
(define-fun .def_164 () Bool (and .def_115 .def_163))
(define-fun .def_184 () Bool (and .def_164 .def_183))
(define-fun .def_179 () Bool (= !pc.next 189))
(define-fun .def_180 () Bool (and .def_177 .def_179))
(define-fun .def_127 () Bool (and .def_120 .def_126))
(define-fun .def_129 () Bool (and .def_127 .def_128))
(define-fun .def_131 () Bool (and .def_129 .def_130))
(define-fun .def_133 () Bool (and .def_131 .def_132))
(define-fun .def_135 () Bool (and .def_133 .def_134))
(define-fun .def_137 () Bool (and .def_135 .def_136))
(define-fun .def_139 () Bool (and .def_137 .def_138))
(define-fun .def_141 () Bool (and .def_139 .def_140))
(define-fun .def_143 () Bool (and .def_141 .def_142))
(define-fun .def_145 () Bool (and .def_143 .def_144))
(define-fun .def_147 () Bool (and .def_145 .def_146))
(define-fun .def_148 () Bool (and .def_115 .def_147))
(define-fun .def_181 () Bool (and .def_148 .def_180))
(define-fun .def_185 () Bool (or .def_181 .def_184))
(define-fun .def_189 () Bool (or .def_185 .def_188))
(define-fun .def_113 () Bool (and .def_59 .def_112))
(define-fun .def_108 () Bool (= |!{$(in_main#0)<array.1>}.next| |%{$(in_main#0)<array.1>}#1|))
(define-fun .def_106 () Bool (= |!{$(in_main#0)<start>}.next| |!{$(in_main#0)<$(in___VERIFIER_nondet_int#1)<h#<__VERIFIER_nondet_int.return>>>}|))
(define-fun .def_104 () Bool (= |!{$(in_main#0)<pivot>}.next| |%{$(in_main#0)<pivot>}#1|))
(define-fun .def_102 () Bool (= |!{$(in_main#0)<pi>}.next| |%{$(in_main#0)<pi>}#1|))
(define-fun .def_100 () Bool (= |!{$(in_main#0)<l>}.next| |%{$(in_main#0)<l>}#1|))
(define-fun .def_98 () Bool (= |!{$(in_main#0)<k#1>}.next| |%{$(in_main#0)<k#1>}#1|))
(define-fun .def_96 () Bool (= |!{$(in_main#0)<k>}.next| 0))
(define-fun .def_94 () Bool (= |!{$(in_main#0)<j>}.next| |%{$(in_main#0)<j>}#1|))
(define-fun .def_92 () Bool (= |!{$(in_main#0)<i>}.next| |%{$(in_main#0)<i>}#1|))
(define-fun .def_90 () Bool (= |!{$(in_main#0)<end>}.next| |!{$(in_main#0)<$(in___VERIFIER_nondet_int#2)<h#<__VERIFIER_nondet_int.return>>>}|))
(define-fun .def_89 () Bool (= |!{$(in_main#0)<N>}.next| |!{$(in_main#0)<$(in___VERIFIER_nondet_int#0)<h#<__VERIFIER_nondet_int.return>>>}|))
(define-fun .def_91 () Bool (and .def_89 .def_90))
(define-fun .def_93 () Bool (and .def_91 .def_92))
(define-fun .def_95 () Bool (and .def_93 .def_94))
(define-fun .def_97 () Bool (and .def_95 .def_96))
(define-fun .def_99 () Bool (and .def_97 .def_98))
(define-fun .def_101 () Bool (and .def_99 .def_100))
(define-fun .def_103 () Bool (and .def_101 .def_102))
(define-fun .def_105 () Bool (and .def_103 .def_104))
(define-fun .def_107 () Bool (and .def_105 .def_106))
(define-fun .def_109 () Bool (and .def_107 .def_108))
(define-fun .def_83 () Bool (<= |!{$(in_main#0)<$(in___VERIFIER_nondet_int#0)<h#<__VERIFIER_nondet_int.return>>>}| |!{$(in_main#0)<$(in___VERIFIER_nondet_int#2)<h#<__VERIFIER_nondet_int.return>>>}|))
(define-fun .def_84 () Bool (not .def_83))
(define-fun .def_81 () Bool (<= |!{$(in_main#0)<$(in___VERIFIER_nondet_int#1)<h#<__VERIFIER_nondet_int.return>>>}| |!{$(in_main#0)<$(in___VERIFIER_nondet_int#2)<h#<__VERIFIER_nondet_int.return>>>}|))
(define-fun .def_79 () Bool (<= 0 |!{$(in_main#0)<$(in___VERIFIER_nondet_int#1)<h#<__VERIFIER_nondet_int.return>>>}|))
(define-fun .def_77 () Bool (<= |!{$(in_main#0)<$(in___VERIFIER_nondet_int#0)<h#<__VERIFIER_nondet_int.return>>>}| 0))
(define-fun .def_78 () Bool (not .def_77))
(define-fun .def_80 () Bool (and .def_78 .def_79))
(define-fun .def_82 () Bool (and .def_80 .def_81))
(define-fun .def_85 () Bool (and .def_82 .def_84))
(define-fun .def_86 () Int (ite .def_85 1 0))
(define-fun .def_87 () Bool (= .def_86 0))
(define-fun .def_88 () Bool (not .def_87))
(define-fun .def_110 () Bool (and .def_88 .def_109))
(define-fun .def_114 () Bool (and .def_110 .def_113))
(define-fun .def_190 () Bool (or .def_114 .def_189))
(define-fun .def_246 () Bool (or .def_190 .def_245))
(define-fun .def_362 () Bool (or .def_246 .def_361))
(define-fun .def_400 () Bool (! (or .def_362 .def_399) :trans true))
(define-fun .def_247 () Bool (= .def_56 158))
(define-fun .def_191 () Bool (= .def_56 189))
(define-fun .def_401 () Bool (or .def_191 .def_247))
(define-fun .def_257 () Bool (= .def_56 131))
(define-fun .def_402 () Bool (or .def_257 .def_401))
(define-fun .def_403 () Bool (! (not .def_402) :invar-property 0 :invar-property-name ||))
(assert true)
